0 4414
7 4410
8 4406
10 4309
13 4257
16 4223
20 4222
24 4208
25 4204
27 4196
28 4175
30 4170
36 4119
42 4109
43 4102
50 4086
51 4079
52 4045
55 4016
56 3964
72 3940
79 3915
104 3903
107 3900
140 3899
180 3895
194 3893
196 3849
201 3843
221 3842
236 3839
239 3826
242 3816
309 3808
365 3804
383 3803
446 3802
463 3796
466 3793
498 3780
503 3774
506 3770
520 3756
542 3750
560 3736
642 3727
648 3726
660 3721
676 3707
680 3700
722 3698
733 3693
742 3668
773 3665
777 3651
944 3641
1137 3633
1224 3627
1333 3625
1476 3623
1511 3620
1528 3617
1710 3610
1861 3609
1880 3608
2095 3603
2117 3600
2122 3598
2383 3594
2457 3593
2533 3591
2553 3586
2649 3581
2771 3580
2825 3578
3945 3571
